51 191 29 9 90 198 5 30 110 25 60 86 72 103 75 31 35 113 4 154 67 181 62 135 15 27 88 52 193 156 66 73 26 10 190 1 195 48 139 160 183 148 101 100 192 47 111 171 138 145 74 43 71 136 104 92 121 54 125 109 170 128 95 41 194 0 132 174 141 163 19 82 131 89 20 46 178 149 118 53 127 97 152 94 144 39 6 130 124 176 173 112 161 106 175 116 123 23 150 147 186 177 84 77 122 55 65 158 81 28 33 11 168 188 40 180 45 16 17 85 153 70 58 87 78 91 7 42 184 172 76 140 99 14 117 187 167 165 133 162 169 164 134 2 12 21 83 137 182 157 197 119 36 146 199 44 8 179 22 143 59 63 108 155 13 96 49 18 129 32 38 64 37 196 93 102 115 120 56 57 24 114 185 34 105 61 126 68 107 166 159 142 189 50 3 80 98 79 151 69 

